
#######################################################################
#
#                 Cambridge Crystallographic Data Centre
#                                CCDC 
#
#######################################################################
#
# If this CIF has been generated directly or indirectly from an entry in the 
# Cambridge Structural Database, then it will include bibliographic, chemical, 
# crystal, experimental, refinement or atomic coordinate data resulting from 
# the CCDC's data processing and validation procedures. Files generated from 
# CSD entries are Copyright 2014 Cambridge Crystallographic Data Centre. They 
# may be used in bona fide research applications only, and may not be copied or 
# further disseminated in any form, whether machine-readable or not, except for 
# the purposes of generating routine backup copies on your local computer 
# system.
# 
# Files arising from any other source may also contain material that is the 
# copyright of third parties, including the originator, and you should check 
# with the originator concerning the permitted uses of the information 
# contained in this CIF.
#
# For further information on the CCDC and the free tools enCIFer and Mercury
# for validating and visualising CIF files, please visit www.ccdc.cam.ac.uk
#
#######################################################################

data_BENZEN01
_audit_creation_date             1971-12-31
_database_code_NBS               502914
_chemical_formula_moiety         'C6 H6'
_chemical_name_systematic        Benzene
_journal_coden_Cambridge         14
_journal_volume                  279
_journal_year                    1964
_journal_page_first              98
_journal_name_full               Proc.R.Soc.London,Ser.A
loop_
_publ_author_name
G.E.Bacon
N.A.Curry
S.A.Wilson
_chemical_absolute_configuration unk
_diffrn_ambient_temperature      138
_exptl_crystal_density_diffrn    1.094
#These two values have been output from a single CSD field.
_refine_ls_R_factor_gt           0.076
_refine_ls_wR_factor_gt          0.076
_diffrn_radiation_probe          neutron
_diffrn_source                   'neutron radiation'
_symmetry_cell_setting           orthorhombic
_symmetry_space_group_name_H-M   'P b c a'
_symmetry_Int_Tables_number      61
loop_
_symmetry_equiv_pos_site_id
_symmetry_equiv_pos_as_xyz
1 x,y,z
2 1/2-x,1/2+y,z
3 x,1/2-y,1/2+z
4 1/2-x,-y,1/2+z
5 -x,-y,-z
6 1/2+x,1/2-y,-z
7 -x,1/2+y,1/2-z
8 1/2+x,y,1/2-z
_cell_length_a                   7.390
_cell_length_b                   9.420
_cell_length_c                   6.810
_cell_angle_alpha                90
_cell_angle_beta                 90
_cell_angle_gamma                90
_cell_volume                     474.07
_cell_formula_units_Z            4
loop_
_atom_site_label
_atom_site_type_symbol
_atom_site_fract_x
_atom_site_fract_y
_atom_site_fract_z
C1 C -0.06070 0.13930 -0.00690
C2 C -0.13770 0.04470 0.12600
C3 C 0.07700 0.09580 -0.13250
H1 H -0.10460 0.25020 -0.01230
H2 H -0.24580 0.07810 0.22410
H3 H 0.13710 0.16810 -0.23600
C3D C -0.077 -0.0958 0.1325
C2D C 0.1377 -0.0447 -0.126
C1D C 0.0607 -0.1393 0.0069
H3D H -0.1371 -0.1681 0.236
H2D H 0.2458 -0.0781 -0.2241
H1D H 0.1046 -0.2502 0.0123

#END

