####################################################################### 
# 
# This file contains crystal structure data downloaded from the 
# Cambridge Structural Database (CSD) hosted by the Cambridge 
# Crystallographic Data Centre (CCDC).
# 
# Full information about CCDC data access policies and citation 
# guidelines are available at http://www.ccdc.cam.ac.uk/access/V1 
# 
# Audit and citation data items may have been added by the CCDC. 
# Please retain this information to preserve the provenance of 
# this file and to allow appropriate attribution of the data. 
# 
#######################################################################

data_BIMDIL
#This CIF has been generated from an entry in the Cambridge Structural Database
_database_code_depnum_ccdc_archive 'CCDC 1111097'
_database_code_CSD               BIMDIL
loop_
_citation_id
_citation_doi
_citation_year
1 10.1021/ja003159k 2000
_audit_creation_method           'Created from the CSD'
_audit_update_record             
;
2023-07-12 downloaded from the CCDC.
;
_database_code_NBS               759259
_chemical_formula_moiety         '(C14 H12 Cu2 O8)n,0.16n(H2 O1)'
_chemical_name_systematic        
'catena-((\m~8~-1,3,5,7-adamantanetetracarboxylato)-di-copper(ii) hydrate)'
_chemical_absolute_configuration unk
_diffrn_ambient_temperature      158
_exptl_crystal_density_diffrn    1.405
#These two values have been output from a single CSD field.
_refine_ls_R_factor_gt           0.0353
_refine_ls_wR_factor_gt          0.0353
_diffrn_radiation_probe          x-ray
_symmetry_cell_setting           tetragonal
_symmetry_space_group_name_H-M   'P 42/m m c'
_symmetry_Int_Tables_number      131
_space_group_name_Hall           '-P 4c 2'
loop_
_symmetry_equiv_pos_site_id
_symmetry_equiv_pos_as_xyz
1 x,y,z
2 -y,x,1/2+z
3 x,-y,-z
4 -x,-y,z
5 y,x,1/2-z
6 y,-x,1/2+z
7 -x,y,-z
8 -y,-x,1/2-z
9 -x,-y,-z
10 y,-x,1/2-z
11 -x,y,z
12 x,y,-z
13 -y,-x,1/2+z
14 -y,x,1/2-z
15 x,-y,z
16 y,x,1/2+z
_cell_length_a                   8.4671(4)
_cell_length_b                   8.4671(4)
_cell_length_c                   14.4437(10)
_cell_angle_alpha                90
_cell_angle_beta                 90
_cell_angle_gamma                90
_cell_volume                     1035.49
_cell_formula_units_Z            2
loop_
_atom_site_label
_atom_site_type_symbol
_atom_site_fract_x
_atom_site_fract_y
_atom_site_fract_z
Cu1 Cu 0.5000 0.1470(1) 0.0000
O1 O 0.3382(2) 0.1317(2) 0.0942(1)
C1 C 0.2877(4) 0.0000 0.1217(2)
C2 C 0.1491(4) 0.0000 0.1889(2)
C3 C 0.1486(3) 0.1486(3) 0.2500
C4 C 0.0000 0.0000 0.1270(3)
H1 H 0.2441 0.1500 0.2895
H2 H 0.1500 0.2441 0.2105
H3 H 0.0000 -0.0947 0.0868
H4 H 0.0000 0.0947 0.0868
Cu1B Cu 0.5000 -0.1470(1) 0.0000
O1F O 0.6618(2) 0.1317(2) -0.0942(1)
O1J O 0.6618(2) 0.1317(2) 0.0942(1)
O1K O 0.3382(2) 0.1317(2) -0.0942(1)
O1N O 0.3382(2) -0.1317(2) 0.0942(1)
C3I C 0.1486(3) -0.1486(3) 0.2500
C2D C 0.0000 0.1491(4) 0.3111(2)
C2C C -0.1491(4) 0.0000 0.1889(2)
C2G C 0.0000 -0.1491(4) 0.3111(2)
H1I H 0.1500 -0.2441 0.2105
H1N H 0.2441 -0.1500 0.2895
C1D C 0.0000 0.2877(4) 0.3783(2)
C3J C -0.1486(3) 0.1486(3) 0.2500
C4D C 0.0000 0.0000 0.3730(3)
C1C C -0.2877(4) 0.0000 0.1217(2)
C3C C -0.1486(3) -0.1486(3) 0.2500
O1H O 0.6618(2) -0.1317(2) -0.0942(1)
O1C O 0.6618(2) -0.1317(2) 0.0942(1)
O1B O 0.3382(2) -0.1317(2) -0.0942(1)
C1G C 0.0000 -0.2877(4) 0.3783(2)
O1D O 0.1317(2) 0.3382(2) 0.4058(1)
O1M O -0.1317(2) 0.3382(2) 0.4058(1)
H1J H -0.2441 0.1500 0.2895
H1M H -0.1500 0.2441 0.2105
H3D H -0.0947 0.0000 0.4132
H3G H 0.0947 0.0000 0.4132
O1C O -0.3382(2) -0.1317(2) 0.0942(1)
O1J O -0.3382(2) 0.1317(2) 0.0942(1)
H1C H -0.2441 -0.1500 0.2895
H1G H -0.1500 -0.2441 0.2105
O1G O -0.1317(2) -0.3382(2) 0.4058(1)
O1I O 0.1317(2) -0.3382(2) 0.4058(1)
Cu1D Cu 0.1470(1) 0.5000 0.5000
Cu1A Cu -0.1470(1) 0.5000 0.5000
Cu1B Cu -0.5000 -0.1470(1) 0.0000
Cu1 Cu -0.5000 0.1470(1) 0.0000
Cu1A Cu -0.1470(1) -0.5000 0.5000
Cu1D Cu 0.1470(1) -0.5000 0.5000
O2? O 0.5000 0.4405 0.0(3)

#END
